
Gurobi 11.0.3 (linux64) logging started Mon Aug 25 15:03:40 2025

Set parameter LogFile to value "/home/yihong/Coding/OR_SUC/SUC_epstheta_results_bigM100000_thread4/case24_ieee_rts_theta0.1_epsilon0.1_gurobi_seed130000_num_gen100_N_WDR50_load_scaling_factor1_proposed_theta_T6quadra_cost_bc1.01.txt"
Set parameter TimeLimit to value 3600
Gurobi Optimizer version 11.0.3 build v11.0.3rc0 (linux64 - "Ubuntu 20.04.6 LTS")

CPU model: AMD EPYC 7532 32-Core Processor, instruction set [SSE2|AVX|AVX2]
Thread count: 64 physical cores, 128 logical processors, using up to 4 threads

Academic license 2399124 - for non-commercial use only - registered to yi___@ed.ac.uk
Optimize a model with 13966 rows, 7491 columns and 327526 nonzeros
Model fingerprint: 0x41f963dc
Model has 600 quadratic constraints
Variable types: 6891 continuous, 600 integer (600 binary)
Coefficient statistics:
  Matrix range     [3e-04, 2e+03]
  QMatrix range    [2e-03, 8e-03]
  QLMatrix range   [2e-01, 6e+01]
  Objective range  [1e+00, 1e+00]
  Bounds range     [1e+00, 1e+00]
  RHS range        [1e+00, 9e+03]
Presolve removed 11491 rows and 3283 columns
Presolve time: 0.10s
Presolved: 2475 rows, 4208 columns, 14348 nonzeros
Presolved model has 600 quadratic constraint(s)
Variable types: 3608 continuous, 600 integer (600 binary)

Root relaxation: objective 6.916509e+03, 2001 iterations, 0.03 seconds (0.04 work units)

    Nodes    |    Current Node    |     Objective Bounds      |     Work
 Expl Unexpl |  Obj  Depth IntInf | Incumbent    BestBd   Gap | It/Node Time

     0     0 6916.50859    0    6          - 6916.50859      -     -    0s
     0     0 104310.101    0  156          - 104310.101      -     -    0s
     0     0 104312.527    0  156          - 104312.527      -     -    0s
     0     0 175422.274    0  102          - 175422.274      -     -    0s
     0     0 175450.452    0   84          - 175450.452      -     -    0s
     0     0 175450.632    0   84          - 175450.632      -     -    0s
     0     0 175450.632    0   84          - 175450.632      -     -    0s
     0     2 175450.680    0   84          - 175450.680      -     -    1s
H  111   116                    175453.73619 175453.384  0.00%   8.3    1s
*  111   116              47    175453.73619 175453.384  0.00%   8.3    1s

Cutting planes:
  Gomory: 82
  Implied bound: 152
  MIR: 12
  Flow cover: 53

Explored 123 nodes (5930 simplex iterations) in 1.65 seconds (1.26 work units)
Thread count was 4 (of 128 available processors)

Solution count 2: 175454 175454 

Optimal solution found (tolerance 1.00e-03)
Warning: max constraint violation (3.1623e-07) exceeds tolerance
Best objective 1.754537361947e+05, best bound 1.754533836751e+05, gap 0.0002%

Gurobi 11.0.3 (linux64) logging started Mon Aug 25 15:03:42 2025

Set parameter LogFile to value "/home/yihong/Coding/OR_SUC/SUC_epstheta_results_bigM100000_thread4/case24_ieee_rts_theta0.1_epsilon0.1_gurobi_seed130000_num_gen100_N_WDR50_load_scaling_factor1_proposed_theta_T6quadra_cost_bc1.01.txt"
Set parameter TimeLimit to value 3600
Gurobi Optimizer version 11.0.3 build v11.0.3rc0 (linux64 - "Ubuntu 20.04.6 LTS")

CPU model: AMD EPYC 7532 32-Core Processor, instruction set [SSE2|AVX|AVX2]
Thread count: 64 physical cores, 128 logical processors, using up to 4 threads

Academic license 2399124 - for non-commercial use only - registered to yi___@ed.ac.uk
Optimize a model with 13967 rows, 7492 columns and 329387 nonzeros
Model fingerprint: 0xe757df6e
Model has 600 quadratic constraints
Variable types: 6892 continuous, 600 integer (600 binary)
Coefficient statistics:
  Matrix range     [3e-04, 2e+03]
  QMatrix range    [2e-03, 8e-03]
  QLMatrix range   [2e-01, 6e+01]
  Objective range  [1e+00, 1e+00]
  Bounds range     [1e-01, 1e+00]
  RHS range        [1e+00, 2e+05]
Presolve removed 10509 rows and 2793 columns
Presolve time: 0.10s
Presolved: 3458 rows, 4699 columns, 19240 nonzeros
Presolved model has 600 quadratic constraint(s)
Variable types: 4095 continuous, 604 integer (604 binary)

Root relaxation: objective 9.877384e+00, 3930 iterations, 0.07 seconds (0.08 work units)

    Nodes    |    Current Node    |     Objective Bounds      |     Work
 Expl Unexpl |  Obj  Depth IntInf | Incumbent    BestBd   Gap | It/Node Time

     0     0    9.87738    0    9          -    9.87738      -     -    0s
     0     0    1.22534    0   18          -    1.22534      -     -    0s
     0     0    1.22525    0   18          -    1.22525      -     -    0s
     0     0    0.32868    0   12          -    0.32868      -     -    0s
     0     0    0.32848    0   12          -    0.32848      -     -    0s
     0     0    0.32831    0   12          -    0.32831      -     -    0s
     0     0    0.32831    0   12          -    0.32831      -     -    0s
     0     0    0.32829    0   12          -    0.32829      -     -    0s
H    0     0                       0.2876194    0.32829  14.1%     -    1s
     0     2    0.32829    0   12    0.28762    0.32829  14.1%     -    1s
H   61    63                       0.3181354    0.32790  3.07%  10.5    2s
H   93    67                       0.3209364    0.32778  2.13%  11.8    2s
*   93    67              20       0.3209364    0.32778  2.13%  12.0    2s
H  118    63                       0.3224482    0.32738  1.53%  12.7    2s
*  118    63               9       0.3224482    0.32738  1.53%  12.7    2s
H  153    56                       0.3268246    0.32683  0.00%  13.0    2s
*  153    56              19       0.3268246    0.32683  0.00%  13.0    2s

Cutting planes:
  Gomory: 1
  Implied bound: 20
  RLT: 2

Explored 168 nodes (9248 simplex iterations) in 2.49 seconds (2.37 work units)
Thread count was 4 (of 128 available processors)

Solution count 5: 0.326825 0.322448 0.320936 ... 0.287619

Optimal solution found (tolerance 1.00e-03)
Best objective 3.268246260275e-01, best bound 3.268257214188e-01, gap 0.0003%
